; benchmark generated from python API
(set-info :status unknown)
(define-funs-rec ( ( T2_08 ((x!1 Int)) Int)
                   ( b2_08 ((x!1 Int)) Int)
                   ( T2_02 ((x!1 Int)) Int)
                   ( p2_02 ((x!1 Int)) Int))
                 ( (mod ((_ b2_08 0) x!1) 2)
                   (let ((a!1 (- ((_ b2_08 0) (+ (div x!1 2) (mod x!1 2)))
                                 ((_ b2_08 0) (div x!1 2)))))
                     (ite (< x!1 2) x!1 a!1))
                   (let ((a!1 (/ (- 1.0 (^ (- 1) ((_ p2_02 0) x!1))) 2.0)))
                     (to_int a!1))
                   (ite (= x!1 0) 0 (+ ((_ p2_02 0) (div x!1 2)) (mod x!1 2)))))
(assert
 (forall ((n Int) )(let ((?x370 ((_ T2_08 0) n)))
(let ((?x358 ((_ T2_02 0) n)))
(let (($x356 (= ?x358 ?x370)))
(let (($x379 (>= n 0)))
(=> $x379 $x356))))))
)
(check-sat)
